c File: flat50_3_0.col
c
c SOURCE: Joseph Culberson (joe@cs.ualberta.ca)
c DESCRIPTION: Quasi-random coloring problem
c              generated with flatness = 0
c                             probability = 0.139
c                             known coloring = 3
c                             random seed = 1313
c              Creation Date:  Tue Jun  9 12:06:18 1998
c Maximum degree = 8 Minimum degree = 1
c p edge 50 115
c cnf created by edge2cnf
p cnf 150 545
-1 -2 0
-1 -3 0
-2 -3 0
1 2 3 0
-4 -5 0
-4 -6 0
-5 -6 0
4 5 6 0
-7 -8 0
-7 -9 0
-8 -9 0
7 8 9 0
-10 -11 0
-10 -12 0
-11 -12 0
10 11 12 0
-13 -14 0
-13 -15 0
-14 -15 0
13 14 15 0
-16 -17 0
-16 -18 0
-17 -18 0
16 17 18 0
-19 -20 0
-19 -21 0
-20 -21 0
19 20 21 0
-22 -23 0
-22 -24 0
-23 -24 0
22 23 24 0
-25 -26 0
-25 -27 0
-26 -27 0
25 26 27 0
-28 -29 0
-28 -30 0
-29 -30 0
28 29 30 0
-31 -32 0
-31 -33 0
-32 -33 0
31 32 33 0
-34 -35 0
-34 -36 0
-35 -36 0
34 35 36 0
-37 -38 0
-37 -39 0
-38 -39 0
37 38 39 0
-40 -41 0
-40 -42 0
-41 -42 0
40 41 42 0
-43 -44 0
-43 -45 0
-44 -45 0
43 44 45 0
-46 -47 0
-46 -48 0
-47 -48 0
46 47 48 0
-49 -50 0
-49 -51 0
-50 -51 0
49 50 51 0
-52 -53 0
-52 -54 0
-53 -54 0
52 53 54 0
-55 -56 0
-55 -57 0
-56 -57 0
55 56 57 0
-58 -59 0
-58 -60 0
-59 -60 0
58 59 60 0
-61 -62 0
-61 -63 0
-62 -63 0
61 62 63 0
-64 -65 0
-64 -66 0
-65 -66 0
64 65 66 0
-67 -68 0
-67 -69 0
-68 -69 0
67 68 69 0
-70 -71 0
-70 -72 0
-71 -72 0
70 71 72 0
-73 -74 0
-73 -75 0
-74 -75 0
73 74 75 0
-76 -77 0
-76 -78 0
-77 -78 0
76 77 78 0
-79 -80 0
-79 -81 0
-80 -81 0
79 80 81 0
-82 -83 0
-82 -84 0
-83 -84 0
82 83 84 0
-85 -86 0
-85 -87 0
-86 -87 0
85 86 87 0
-88 -89 0
-88 -90 0
-89 -90 0
88 89 90 0
-91 -92 0
-91 -93 0
-92 -93 0
91 92 93 0
-94 -95 0
-94 -96 0
-95 -96 0
94 95 96 0
-97 -98 0
-97 -99 0
-98 -99 0
97 98 99 0
-100 -101 0
-100 -102 0
-101 -102 0
100 101 102 0
-103 -104 0
-103 -105 0
-104 -105 0
103 104 105 0
-106 -107 0
-106 -108 0
-107 -108 0
106 107 108 0
-109 -110 0
-109 -111 0
-110 -111 0
109 110 111 0
-112 -113 0
-112 -114 0
-113 -114 0
112 113 114 0
-115 -116 0
-115 -117 0
-116 -117 0
115 116 117 0
-118 -119 0
-118 -120 0
-119 -120 0
118 119 120 0
-121 -122 0
-121 -123 0
-122 -123 0
121 122 123 0
-124 -125 0
-124 -126 0
-125 -126 0
124 125 126 0
-127 -128 0
-127 -129 0
-128 -129 0
127 128 129 0
-130 -131 0
-130 -132 0
-131 -132 0
130 131 132 0
-133 -134 0
-133 -135 0
-134 -135 0
133 134 135 0
-136 -137 0
-136 -138 0
-137 -138 0
136 137 138 0
-139 -140 0
-139 -141 0
-140 -141 0
139 140 141 0
-142 -143 0
-142 -144 0
-143 -144 0
142 143 144 0
-145 -146 0
-145 -147 0
-146 -147 0
145 146 147 0
-148 -149 0
-148 -150 0
-149 -150 0
148 149 150 0
-76 -1 0
-77 -2 0
-78 -3 0
-85 -1 0
-86 -2 0
-87 -3 0
-145 -1 0
-146 -2 0
-147 -3 0
-55 -4 0
-56 -5 0
-57 -6 0
-82 -4 0
-83 -5 0
-84 -6 0
-91 -4 0
-92 -5 0
-93 -6 0
-97 -4 0
-98 -5 0
-99 -6 0
-67 -7 0
-68 -8 0
-69 -9 0
-82 -7 0
-83 -8 0
-84 -9 0
-88 -7 0
-89 -8 0
-90 -9 0
-97 -7 0
-98 -8 0
-99 -9 0
-109 -7 0
-110 -8 0
-111 -9 0
-145 -7 0
-146 -8 0
-147 -9 0
-67 -10 0
-68 -11 0
-69 -12 0
-73 -10 0
-74 -11 0
-75 -12 0
-76 -10 0
-77 -11 0
-78 -12 0
-79 -10 0
-80 -11 0
-81 -12 0
-133 -10 0
-134 -11 0
-135 -12 0
-142 -10 0
-143 -11 0
-144 -12 0
-52 -13 0
-53 -14 0
-54 -15 0
-58 -13 0
-59 -14 0
-60 -15 0
-67 -13 0
-68 -14 0
-69 -15 0
-100 -13 0
-101 -14 0
-102 -15 0
-121 -13 0
-122 -14 0
-123 -15 0
-127 -13 0
-128 -14 0
-129 -15 0
-139 -13 0
-140 -14 0
-141 -15 0
-142 -13 0
-143 -14 0
-144 -15 0
-52 -16 0
-53 -17 0
-54 -18 0
-88 -16 0
-89 -17 0
-90 -18 0
-91 -16 0
-92 -17 0
-93 -18 0
-100 -16 0
-101 -17 0
-102 -18 0
-106 -16 0
-107 -17 0
-108 -18 0
-145 -16 0
-146 -17 0
-147 -18 0
-58 -19 0
-59 -20 0
-60 -21 0
-91 -19 0
-92 -20 0
-93 -21 0
-103 -19 0
-104 -20 0
-105 -21 0
-127 -19 0
-128 -20 0
-129 -21 0
-139 -19 0
-140 -20 0
-141 -21 0
-52 -22 0
-53 -23 0
-54 -24 0
-73 -22 0
-74 -23 0
-75 -24 0
-91 -22 0
-92 -23 0
-93 -24 0
-115 -22 0
-116 -23 0
-117 -24 0
-130 -22 0
-131 -23 0
-132 -24 0
-139 -22 0
-140 -23 0
-141 -24 0
-52 -25 0
-53 -26 0
-54 -27 0
-88 -25 0
-89 -26 0
-90 -27 0
-124 -25 0
-125 -26 0
-126 -27 0
-55 -28 0
-56 -29 0
-57 -30 0
-82 -31 0
-83 -32 0
-84 -33 0
-94 -31 0
-95 -32 0
-96 -33 0
-121 -31 0
-122 -32 0
-123 -33 0
-61 -34 0
-62 -35 0
-63 -36 0
-112 -34 0
-113 -35 0
-114 -36 0
-124 -34 0
-125 -35 0
-126 -36 0
-142 -34 0
-143 -35 0
-144 -36 0
-55 -37 0
-56 -38 0
-57 -39 0
-61 -37 0
-62 -38 0
-63 -39 0
-73 -37 0
-74 -38 0
-75 -39 0
-106 -37 0
-107 -38 0
-108 -39 0
-112 -37 0
-113 -38 0
-114 -39 0
-118 -37 0
-119 -38 0
-120 -39 0
-133 -37 0
-134 -38 0
-135 -39 0
-70 -40 0
-71 -41 0
-72 -42 0
-118 -40 0
-119 -41 0
-120 -42 0
-121 -40 0
-122 -41 0
-123 -42 0
-70 -43 0
-71 -44 0
-72 -45 0
-88 -43 0
-89 -44 0
-90 -45 0
-97 -43 0
-98 -44 0
-99 -45 0
-106 -43 0
-107 -44 0
-108 -45 0
-142 -43 0
-143 -44 0
-144 -45 0
-145 -43 0
-146 -44 0
-147 -45 0
-103 -46 0
-104 -47 0
-105 -48 0
-106 -46 0
-107 -47 0
-108 -48 0
-124 -46 0
-125 -47 0
-126 -48 0
-139 -46 0
-140 -47 0
-141 -48 0
-112 -49 0
-113 -50 0
-114 -51 0
-127 -49 0
-128 -50 0
-129 -51 0
-145 -52 0
-146 -53 0
-147 -54 0
-112 -55 0
-113 -56 0
-114 -57 0
-103 -61 0
-104 -62 0
-105 -63 0
-130 -61 0
-131 -62 0
-132 -63 0
-145 -61 0
-146 -62 0
-147 -63 0
-133 -64 0
-134 -65 0
-135 -66 0
-139 -64 0
-140 -65 0
-141 -66 0
-127 -67 0
-128 -68 0
-129 -69 0
-142 -67 0
-143 -68 0
-144 -69 0
-109 -70 0
-110 -71 0
-111 -72 0
-115 -70 0
-116 -71 0
-117 -72 0
-106 -73 0
-107 -74 0
-108 -75 0
-115 -73 0
-116 -74 0
-117 -75 0
-118 -73 0
-119 -74 0
-120 -75 0
-124 -73 0
-125 -74 0
-126 -75 0
-118 -76 0
-119 -77 0
-120 -78 0
-124 -76 0
-125 -77 0
-126 -78 0
-133 -76 0
-134 -77 0
-135 -78 0
-145 -79 0
-146 -80 0
-147 -81 0
-106 -82 0
-107 -83 0
-108 -84 0
-121 -82 0
-122 -83 0
-123 -84 0
-130 -82 0
-131 -83 0
-132 -84 0
-139 -82 0
-140 -83 0
-141 -84 0
-109 -85 0
-110 -86 0
-111 -87 0
-124 -85 0
-125 -86 0
-126 -87 0
-136 -85 0
-137 -86 0
-138 -87 0
-106 -88 0
-107 -89 0
-108 -90 0
-115 -88 0
-116 -89 0
-117 -90 0
-109 -91 0
-110 -92 0
-111 -93 0
-124 -91 0
-125 -92 0
-126 -93 0
-109 -94 0
-110 -95 0
-111 -96 0
-112 -94 0
-113 -95 0
-114 -96 0
-136 -94 0
-137 -95 0
-138 -96 0
-148 -94 0
-149 -95 0
-150 -96 0
-118 -97 0
-119 -98 0
-120 -99 0
-115 -100 0
-116 -101 0
-117 -102 0
-145 -100 0
-146 -101 0
-147 -102 0
-148 -100 0
-149 -101 0
-150 -102 0
